214
110
53
47
123
53
82
127
62
126
129
66
153
0
51
0
80
43
63
42
43
62
71
84
88
60
102
106
88
180
163
139
101
92
184
151
142
41
54
131
35
121
64
63
190
51
60
36
184
96
43
83
47
150
104
67
51
428
129
176
96
104
157
41
233
0
54
234
268
48
86
86
98
174
504
38
87
109
198
60
58
41
69
69
80
63
94
75
68
83
258
234
80
601
175
48
93
75
179
36
